p cnf 36 447
1 4 7 10 13 16 19 22 25 28 31 34 0
2 5 8 11 14 17 20 23 26 29 32 35 0
3 6 9 12 15 18 21 24 27 30 33 36 0
-1 -8 0
-1 -9 0
-2 -9 0
-1 -11 0
-1 -12 0
-2 -12 0
-1 -14 0
-1 -15 0
-2 -15 0
-1 -20 0
-1 -21 0
-2 -21 0
-1 -23 0
-1 -24 0
-2 -24 0
-1 -26 0
-1 -27 0
-2 -27 0
-1 -29 0
-1 -30 0
-2 -30 0
-1 -32 0
-1 -33 0
-2 -33 0
-4 -8 0
-4 -9 0
-5 -9 0
-4 -14 0
-4 -15 0
-5 -15 0
-4 -20 0
-4 -21 0
-5 -21 0
-4 -23 0
-4 -24 0
-5 -24 0
-4 -35 0
-4 -36 0
-5 -36 0
-7 -2 0
-7 -3 0
-8 -3 0
-7 -5 0
-7 -6 0
-8 -6 0
-7 -14 0
-7 -15 0
-8 -15 0
-7 -17 0
-7 -18 0
-8 -18 0
-7 -20 0
-7 -21 0
-8 -21 0
-7 -23 0
-7 -24 0
-8 -24 0
-7 -26 0
-7 -27 0
-8 -27 0
-7 -29 0
-7 -30 0
-8 -30 0
-7 -32 0
-7 -33 0
-8 -33 0
-10 -2 0
-10 -3 0
-11 -3 0
-10 -14 0
-10 -15 0
-11 -15 0
-10 -17 0
-10 -18 0
-11 -18 0
-10 -23 0
-10 -24 0
-11 -24 0
-10 -29 0
-10 -30 0
-11 -30 0
-13 -2 0
-13 -3 0
-14 -3 0
-13 -5 0
-13 -6 0
-14 -6 0
-13 -8 0
-13 -9 0
-14 -9 0
-13 -11 0
-13 -12 0
-14 -12 0
-13 -23 0
-13 -24 0
-14 -24 0
-13 -32 0
-13 -33 0
-14 -33 0
-13 -35 0
-13 -36 0
-14 -36 0
-16 -8 0
-16 -9 0
-17 -9 0
-16 -11 0
-16 -12 0
-17 -12 0
-16 -20 0
-16 -21 0
-17 -21 0
-16 -29 0
-16 -30 0
-17 -30 0
-19 -2 0
-19 -3 0
-20 -3 0
-19 -5 0
-19 -6 0
-20 -6 0
-19 -8 0
-19 -9 0
-20 -9 0
-19 -17 0
-19 -18 0
-20 -18 0
-19 -26 0
-19 -27 0
-20 -27 0
-19 -35 0
-19 -36 0
-20 -36 0
-22 -2 0
-22 -3 0
-23 -3 0
-22 -5 0
-22 -6 0
-23 -6 0
-22 -8 0
-22 -9 0
-23 -9 0
-22 -11 0
-22 -12 0
-23 -12 0
-22 -14 0
-22 -15 0
-23 -15 0
-22 -26 0
-22 -27 0
-23 -27 0
-22 -29 0
-22 -30 0
-23 -30 0
-25 -2 0
-25 -3 0
-26 -3 0
-25 -8 0
-25 -9 0
-26 -9 0
-25 -20 0
-25 -21 0
-26 -21 0
-25 -23 0
-25 -24 0
-26 -24 0
-25 -29 0
-25 -30 0
-26 -30 0
-25 -35 0
-25 -36 0
-26 -36 0
-28 -2 0
-28 -3 0
-29 -3 0
-28 -8 0
-28 -9 0
-29 -9 0
-28 -11 0
-28 -12 0
-29 -12 0
-28 -17 0
-28 -18 0
-29 -18 0
-28 -23 0
-28 -24 0
-29 -24 0
-28 -26 0
-28 -27 0
-29 -27 0
-31 -2 0
-31 -3 0
-32 -3 0
-31 -8 0
-31 -9 0
-32 -9 0
-31 -14 0
-31 -15 0
-32 -15 0
-34 -5 0
-34 -6 0
-35 -6 0
-34 -14 0
-34 -15 0
-35 -15 0
-34 -20 0
-34 -21 0
-35 -21 0
-34 -26 0
-34 -27 0
-35 -27 0
-1 -2 0
-4 -5 0
-7 -8 0
-10 -11 0
-13 -14 0
-16 -17 0
-19 -20 0
-22 -23 0
-25 -26 0
-28 -29 0
-31 -32 0
-34 -35 0
-1 -3 0
-4 -6 0
-7 -9 0
-10 -12 0
-13 -15 0
-16 -18 0
-19 -21 0
-22 -24 0
-25 -27 0
-28 -30 0
-31 -33 0
-34 -36 0
-2 -3 0
-5 -6 0
-8 -9 0
-11 -12 0
-14 -15 0
-17 -18 0
-20 -21 0
-23 -24 0
-26 -27 0
-29 -30 0
-32 -33 0
-35 -36 0
-1 -4 0
-1 -7 0
-1 -10 0
-1 -13 0
-1 -16 0
-1 -19 0
-1 -22 0
-1 -25 0
-1 -28 0
-1 -31 0
-1 -34 0
-4 -7 0
-4 -10 0
-4 -13 0
-4 -16 0
-4 -19 0
-4 -22 0
-4 -25 0
-4 -28 0
-4 -31 0
-4 -34 0
-7 -10 0
-7 -13 0
-7 -16 0
-7 -19 0
-7 -22 0
-7 -25 0
-7 -28 0
-7 -31 0
-7 -34 0
-10 -13 0
-10 -16 0
-10 -19 0
-10 -22 0
-10 -25 0
-10 -28 0
-10 -31 0
-10 -34 0
-13 -16 0
-13 -19 0
-13 -22 0
-13 -25 0
-13 -28 0
-13 -31 0
-13 -34 0
-16 -19 0
-16 -22 0
-16 -25 0
-16 -28 0
-16 -31 0
-16 -34 0
-19 -22 0
-19 -25 0
-19 -28 0
-19 -31 0
-19 -34 0
-22 -25 0
-22 -28 0
-22 -31 0
-22 -34 0
-25 -28 0
-25 -31 0
-25 -34 0
-28 -31 0
-28 -34 0
-31 -34 0
-2 -5 0
-2 -8 0
-2 -11 0
-2 -14 0
-2 -17 0
-2 -20 0
-2 -23 0
-2 -26 0
-2 -29 0
-2 -32 0
-2 -35 0
-5 -8 0
-5 -11 0
-5 -14 0
-5 -17 0
-5 -20 0
-5 -23 0
-5 -26 0
-5 -29 0
-5 -32 0
-5 -35 0
-8 -11 0
-8 -14 0
-8 -17 0
-8 -20 0
-8 -23 0
-8 -26 0
-8 -29 0
-8 -32 0
-8 -35 0
-11 -14 0
-11 -17 0
-11 -20 0
-11 -23 0
-11 -26 0
-11 -29 0
-11 -32 0
-11 -35 0
-14 -17 0
-14 -20 0
-14 -23 0
-14 -26 0
-14 -29 0
-14 -32 0
-14 -35 0
-17 -20 0
-17 -23 0
-17 -26 0
-17 -29 0
-17 -32 0
-17 -35 0
-20 -23 0
-20 -26 0
-20 -29 0
-20 -32 0
-20 -35 0
-23 -26 0
-23 -29 0
-23 -32 0
-23 -35 0
-26 -29 0
-26 -32 0
-26 -35 0
-29 -32 0
-29 -35 0
-32 -35 0
-3 -6 0
-3 -9 0
-3 -12 0
-3 -15 0
-3 -18 0
-3 -21 0
-3 -24 0
-3 -27 0
-3 -30 0
-3 -33 0
-3 -36 0
-6 -9 0
-6 -12 0
-6 -15 0
-6 -18 0
-6 -21 0
-6 -24 0
-6 -27 0
-6 -30 0
-6 -33 0
-6 -36 0
-9 -12 0
-9 -15 0
-9 -18 0
-9 -21 0
-9 -24 0
-9 -27 0
-9 -30 0
-9 -33 0
-9 -36 0
-12 -15 0
-12 -18 0
-12 -21 0
-12 -24 0
-12 -27 0
-12 -30 0
-12 -33 0
-12 -36 0
-15 -18 0
-15 -21 0
-15 -24 0
-15 -27 0
-15 -30 0
-15 -33 0
-15 -36 0
-18 -21 0
-18 -24 0
-18 -27 0
-18 -30 0
-18 -33 0
-18 -36 0
-21 -24 0
-21 -27 0
-21 -30 0
-21 -33 0
-21 -36 0
-24 -27 0
-24 -30 0
-24 -33 0
-24 -36 0
-27 -30 0
-27 -33 0
-27 -36 0
-30 -33 0
-30 -36 0
-33 -36 0
